instances/p2/p2_10_5-4.dzn
Alphabet = {A,C,G,T};
ns = 10;
nc = 5;
neighbours = [| I(G),I(A),I(T),I(T),Null | I(A),I(T),I(T),Null,Null | I(C),I(T),I(A),Null,Null | I(G),I(A),I(A),I(C),Null | I(T),Null,Null,Null,Null | I(G),I(G),I(G),Null,Null | I(T),Null,Null,Null,Null | I(A),I(T),Null,Null,Null | I(T),I(A),I(T),I(T),I(T) | I(C),Null,Null,Null,Null |];
