instances/p2/p2_10_5-4.txt
{
	"num_strings": 10,
	"alphabet": "ACGT",
	"strings": [
		"GATT",
		"ATT",
		"CTA",
		"GAAC",
		"T",
		"GGG",
		"T",
		"AT",
		"TATTT",
		"C"
	],
	"str_length":[4,3,3,4,1,3,1,2,5,1]
}